c Lingeling SAT Solver
c 
c Version azf 92032848c138b2f33629ad24394d60a3787a1046
c 
c Copyright (C) 2010-2014 Armin Biere JKU Linz Austria.
c All rights reserved.
c 
c released Don Mai 22 22:08:00 CEST 2014
c compiled Mon Oct  6 05:55:43 PDT 2014
c 
c gcc (Ubuntu 4.8.2-19ubuntu1) 4.8.2
c -Wall -O3 -DNDBLSCR -DNLGLOG -DNDEBUG -DNCHKSOL -DNLGLPICOSAT -DNLGLDRUPLIG
c -DNLGLYALSAT
c Linux ubuntu 3.13.0-32-generic x86_64
c 
c reading input file benchmark-sat/translations/gc-queen8_12-11.cnf
c no embedded options
c found 'p cnf 1056 35472' header
c read 1056 variables, 35472 clauses, 71808 literals in 0.00 seconds
c 
c  seconds         irredundant          redundant clauses agility   height
c          variables clauses conflicts large ternary binary    glue         MB
c 
c S    0.0    1056    35472         0       0      0     0   0  0.0   0.0    1
c S    1.0     960    15048     22763    3079      0  4320   8 27.3  39.2    2
c S    2.0     960    15048     54261    5787      0  4320   8 23.6  38.2    3
c S    5.0     960    15048    141918    3303      0  4320   8 19.7  30.1    3
c S   10.0     960    15048    312065   10562      0  4320   7 20.4  29.8    4
c S   20.0     960    15048    569473   15611      0  4320   8 24.4  36.9    9
c S   30.0     960    15048    911857   12027      0  4320   8 21.4  32.1    9
c S   40.0     960    15048   1163315    7318      0  4320   8 21.6  31.8    8
c S   50.0     960    15048   1429824   26355      0  4320   7 21.4  31.6   11
c S   60.1     960    15048   1647460   33017      0  4320   8 21.4  31.7   17
c S  120.0     960    15048   2721554    7730      6  4321   8 20.1  28.8    5
c S  180.1     960    15048   4202913   38172      9  4321   8 19.6  27.8   20
c S  240.0     959    15019   5186071   25286      9  4314   8 19.2  27.0   12
c S  300.0     958    14992   6186174   54217      1  4302   8 19.1  26.8   23
c S  600.1     958    14992  10070641   79592      1  4302   8 20.5  29.6   62
c S  900.1     958    14992  16774925   61065      2  4302   8 20.5  30.3   35
